solution status: optimal solution found
objective value:                                  -12
x1023                                               1 	(obj:-1)
x93                                                 1 	(obj:-1)
x157                                                1 	(obj:-1)
x304                                                1 	(obj:-1)
x346                                                1 	(obj:-1)
x370                                                1 	(obj:-1)
x438                                                1 	(obj:-1)
x474                                                1 	(obj:-1)
x486                                                1 	(obj:-1)
x660                                                1 	(obj:-1)
x684                                                1 	(obj:-1)
x711                                                1 	(obj:-1)
